
  22    4
  10   10   10   10

   0   0   0   0   0   2 2 5 
   1  10  10  10  10   4 8 6 4 3 
   5  10  10  10  10   5 14 13 11 10 9 
   9  10  10  10  10   3 11 9 7 
   7  10  10  10  10   2 8 7 
   6  10  10  10  10   3 13 11 10 
   8  10  10  10  10   3 13 12 10 
   8  10  10  10  10   2 11 10 
   5  10  10  10  10   2 16 12 
   9  10  10  10  10   4 21 20 16 15 
   1  10  10  10  10   1 12 
   3  10  10  10  10   3 21 20 15 
   2  10  10  10  10   3 20 16 15 
   7  10  10  10  10   4 21 20 19 17 
   3  10  10  10  10   2 19 17 
   3  10  10  10  10   1 17 
   2  10  10  10  10   1 18 
   7  10  10  10  10   1 22
   4  10  10  10  10   1 22
   6  10  10  10  10   1 22
   3  10  10  10  10   1 22
   0   0   0   0   0   0 
